
  32   50
   5   16    7   10    9   10   12   12    7    9    7    9    6    8    9   15   11   10   16   15   20   19   13   12   10    9   18   12   13   20    5    9    0    0    0    0    0    0    0    0    0    0    0    0    0    0    0    0    0    0

   0   0   0   0   0   0   0   0   0   0   0   0   0   0   0   0   0   0   0   0   0   0   0   0   0   0   0   0   0   0   0   0   0   0   0   0   0   0   0   0   0   0   0   0   0   0   0   0   0   0   0   9 2 3 4 5 6 8 10 14 21 
   3   0   0   0   0   0   0   0   1   0   0   0   0   0   0   8   0   0   0   0   0   8   0   0   0   0   0   0   0   0   0   0   0   0   0   0   0   0   0   0   0   0   0   0   0   0   0   0   0   0   0   8 31 29 28 19 17 16 13 11 
   1   0   0   0   0   0   0   0   0   0   0   0   0   0   0   0   0   0   0   0   0   0   0   0   0   0   0   0   0   0   0   0   0   0   0   0   0   0   0   0   0   0   0   0   0   0   0   0   0   0   0   7 31 29 28 26 15 13 12 
   2   0   0   0   0   0   0   0   0   0   0   0   0   0   0   0   7   0   0   8   0   0   0   8   0   0   0   0   0   0   0   0   0   0   0   0   0   0   0   0   0   0   0   0   0   0   0   0   0   0   0   5 30 27 18 17 7 
   5   0   0   0   0   3   0   0   0   7   0   0   0   0   0   0   0   0   0   0   0   8   0   7   0   0   0   4   0   0   0   0   6   0   0   0   0   0   0   0   0   0   0   0   0   0   0   0   0   0   0   5 27 20 19 18 7 
   9   0   0   0   0   4   0   0   0   0   0   0   0   0   1   0   0   0   0   0  10   0   0   0   0   0   0   7   0   0   0   0   0   0   0   0   0   0   0   0   0   0   0   0   0   0   0   0   0   0   0   4 31 27 16 9 
   7   0   0   7   0   0   4   0   0   0   0   0   0   0   0   0   0   0   0   0   0   0   0   7   0   1   0   0   0   0   0   0   0   0   0   0   0   0   0   0   0   0   0   0   0   0   0   0   0   0   0   5 29 28 26 22 15 
   4   0   0   0   3   0   2   0   0   0   0   0   0   0   0   0   0   0   0   0   0   0   0   0   0   0   0   0   0   0   0   0   0   0   0   0   0   0   0   0   0   0   0   0   0   0   0   0   0   0   0   4 30 26 22 15 
   4   5   0   0   0   0   0   0   0   0   0   0   0   0   0   0   0   0   0   5   0   0   0   0   0   0   5   0   0  10   0   0   0   0   0   0   0   0   0   0   0   0   0   0   0   0   0   0   0   0   0   6 29 28 26 24 23 18 
  10   0   0   0   0   0   0   0  10   0   0   0   0   0   0   0   0   0   0   7   0   0   0   0   0   0   0   0   3   0   7   0   0   0   0   0   0   0   0   0   0   0   0   0   0   0   0   0   0   0   0   5 29 27 26 24 22 
   8   0   0   0   0   0   0   0   0   0   0   0   0   0   0   0   8   0   0   9   0   0   0   0   0   0   3   4   0   0   0   0   0   0   0   0   0   0   0   0   0   0   0   0   0   0   0   0   0   0   0   4 27 25 23 18 
  10   0  10   0   4   0   0   0   0   0   9   0   0   6   0   0   0   0   5   0   0   0   2   0   0   0   0   0   6   0   3   0   0   0   0   0   0   0   0   0   0   0   0   0   0   0   0   0   0   0   0   4 27 24 23 18 
   4   0   0   0   0   0   0   0   0   0   0   0   0   0   8   0   0   0   0   4   0   0   0   0   0   0   8   9   0   0   0   0   0   0   0   0   0   0   0   0   0   0   0   0   0   0   0   0   0   0   0   4 30 27 23 22 
  10   0   0   0   0   0   6   0   0   0   0   0   0   0   0   0   2   0   0   0   0  10   0   0   0   0   0   0   0   0   0   0   0   0   0   0   0   0   0   0   0   0   0   0   0   0   0   0   0   0   0   4 28 25 23 22 
   7   0   0   6   0   0   0   9   0   0   0   0   0   0   0   0  10   0   0   0   0   0   0  10   0   0   0   0   0   0   0   0   0   0   0   0   0   0   0   0   0   0   0   0   0   0   0   0   0   0   0   2 23 16 
   6   0   0   0   0   0   0   0   0   0   0   7   1   0   0   0   0   0   3   0   7   0   0   0   0   0   0   0   8   0   7   0   0   0   0   0   0   0   0   0   0   0   0   0   0   0   0   0   0   0   0   2 25 24 
   1   0   0   0   0   0   4   0   0   0   0   0   0   0   0   0   9   0   0   0   0   0   0   3   0   0   0   0   0   0   0   0   0   0   0   0   0   0   0   0   0   0   0   0   0   0   0   0   0   0   0   2 26 25 
   8   0   0   0   0   0   0   0   3   0   0   0   0   0   0   0   0   0   0   0   0   0   0   0   0  10   6   0   0   0   0   0   0   0   0   0   0   0   0   0   0   0   0   0   0   0   0   0   0   0   0   1 22 
  10   0   0   0   0   0   0   0   3   0   1   0   0   0   0   9   0   0   5   0   0   0   0   0   0   0   0   0   0   0   0   0   0   0   0   0   0   0   0   0   0   0   0   0   0   0   0   0   0   0   0   1 23 
   3   0   0   0   0   0   0   0   0   0   0   0   0   0   0   0   0   0   4   0   8   0   0   0   2   0   0   3   0   0   3   0   0   0   0   0   0   0   0   0   0   0   0   0   0   0   0   0   0   0   0   1 24 
   9   0   0   0   0   0   0   0   0   0   0   0   0   0   0   0   0   0   0   0   0   0   5   0   0   6   0   0   0   2   0   5   0   0   0   0   0   0   0   0   0   0   0   0   0   0   0   0   0   0   0   1 22 
   4   5   0   0   0   0   7   0   0   0   0   0   9   0   0   0   0   0   0   0   0   0   8   0   0   0   0   7   0   0   0   0   0   0   0   0   0   0   0   0   0   0   0   0   0   0   0   0   0   0   0   1 32
   1   0   0   2   0   0   0   7   0   0   0   0   0   0   0   6   6   0   0   0   0  10   6   0   0   0   0   0   7   0   9   0   9   0   0   0   0   0   0   0   0   0   0   0   0   0   0   0   0   0   0   1 32
   4   0   9   0   0   9   0   0   0   0   0   0   0   5   0   0   0  10   0   0   0   0   0   0   0   0   0   0   0   0   0   0   0   0   0   0   0   0   0   0   0   0   0   0   0   0   0   0   0   0   0   1 32
   5   0   0   0   0   0   0   0   0   0   5   0   0   0   0   0   0   0   2   0   0   0   0   0   0   0   0   0   9   0   0   5   8   0   0   0   0   0   0   0   0   0   0   0   0   0   0   0   0   0   0   1 32
   2   0   0   0   0   0   0   0   8   0   0   0   0   0   0   0   0   0   0   0   0   0  10   0   0   0   0   0   0   0   3   0   0   0   0   0   0   0   0   0   0   0   0   0   0   0   0   0   0   0   0   1 32
   7   0   0   0  10   0   0   0   0   0   2   0   0   0   0   0   0   8   0   0   0   0  10   0  10   0   5   0   0   0   0   0   0   0   0   0   0   0   0   0   0   0   0   0   0   0   0   0   0   0   0   1 32
   6   0   0   0   0   0   0   0   0   0   5   0   7   0   0   0   8   0   0   0   0   8   0   0   0   0   0   0   0   9   0   0   0   0   0   0   0   0   0   0   0   0   0   0   0   0   0   0   0   0   0   1 32
  10   0   0   0   0   6   0   0   0   0   0   0   0   0   0   0   0   0   0   0   0   0   5   0   4   0   0   0   0   6  10   0   0   0   0   0   0   0   0   0   0   0   0   0   0   0   0   0   0   0   0   1 32
   5   0  10   0   0   0   0   0   0   0   0   0   0   0   0   0   0   0   0   0   0   0   0   0   0   0   0   0   1   0   0   0   0   0   0   0   0   0   0   0   0   0   0   0   0   0   0   0   0   0   0   1 32
   8   0   0   0   0   0   0   5   0   0   0   0   0   0   0   0   1   4   0   0   0   0   0   0   0   0   0   0   1   0   0   0   0   0   0   0   0   0   0   0   0   0   0   0   0   0   0   0   0   0   0   1 32
   0   0   0   0   0   0   0   0   0   0   0   0   0   0   0   0   0   0   0   0   0   0   0   0   0   0   0   0   0   0   0   0   0   0   0   0   0   0   0   0   0   0   0   0   0   0   0   0   0   0   0   0 
